% HORIZON TEMPOREL
nr_weeks=12;
nr_days_per_week=5;
nr_slots_per_day=8;

% DECOMPTE DES ELEMENTS PRINCIPAUX
nr_equipments=0;
nr_rooms=5;
nr_teachers=2;
nr_groups=4;
nr_courses=1;
nr_parts=4;
nr_classes=6;
nr_constraints=14;
nr_labels=14;

% DECOMPTE DES SOUS-ELEMENTS
nr_part_equipments=0;
nr_part_rooms=10;
nr_part_teachers=4;
nr_scopes=18;
nr_filters=17;
nr_parameters=14;
nr_part_room_mandatory=2;
nr_part_sessions_teacher=3;

% DIMENSIONS
max_session_rank=12;
max_equipment_count=0;
max_room_capacity=286;
max_group_size=22;
max_part_equipment_count=0;
max_part_room_class_bound=0;
max_part_teacher_class_bound=0;
max_element_parameter=4;

% RELATIONS ENTRE CLASSES D'ELEMENTS (STRUCTURELLES/ASSOCIATIVES)
course_parts=[{1,2,3,4}];
part_classes=[{1},{2,3,4},{5},{6}];
part_equipments=[{},{},{},{}];
part_rooms=[{1,2},{3,4,5},{1,2},{3,4,5}];
part_teachers=[{1},{1,2},{1},{}];
class_groups=[{1,2,3,4},{1},{3,4},{2},{1,2,3,4},{1,2,3,4}];
constraint_scopes=[{1},{2},{3},{4},{5},{6,7},{8,9},{10},{11},{12,13,14},{15},{16},{17},{18}];
scope_filters=[{1},{2},{3},{4},{5},{6},{7},{8},{9},{10,11},{12},{13},{14},{15},{16},{17},{},{}];
constraint_function=[sequenced,weekly,weekly,same_week,same_slots,sequenced,sequenced,same_rooms,same_teachers,teacher_repartition,forbidden_slots,allocate_slot,not_consecutive_rooms,at_most_daily];
function_parameters=[{},{},{},{},{},{},{},{},{1},{2,3,4,5},{6,7},{8},{9,10,11},{12,13,14}];
room_label=[{1},{1},{2},{2},{2}];
teacher_label=[{3},{3}];
group_label=[{4,5,6},{4,5,7},{4,8,9},{4,8,9}];
course_label=[{4,10}];
part_label=[{11},{6,12},{13},{14}];

% ATTRIBUTS DES CLASSES D'ELEMENTS
equipment_name=[];
equipment_count=[];
room_name=["AMPHI-A","AMPHI-B","H001","H002","H003"];
room_capacity=[90,286,20,42,38];
teacher_name=["LESAINT David","JAMIN Antoine"];
group_name=["1-td1-tp1-pq","2-td1-tp3-ps","3-td2-tp2-is","4-td2-tp2-qs"];
group_size=[18,22,10,17];
course_name=["Développement-Web"];
part_name=["Développement-Web-CM","Développement-Web-TP","reunion-rentree-l3","Développement-Web-PR"];
class_name=["Développement-Web-CM1","Développement-Web-TP1","Développement-Web-TP2","Développement-Web-TP3","reunion-rentree-l3-1","Développement-Web-PR1"];
label_name=["BATIMENT-A","BATIMENT-H","DEPARTEMENT-INFORMATIQUE","L3-INFORMATIQUE","TD1","TP1","TP3","TD2","TP2","UE","CM","TP","reunion","PR"];
part_nr_sessions=[12,8,1,8];
part_length=[1,2,2,3];
part_equipment_count=[];
part_room_use=[single,single,single,multiple];
part_room_mandatory=array2d(1..nr_part_room_mandatory,1..2,[4,3,4,4]);
parameter_name=["rooms","class1","class2","class3","rooms","first","last","slot","minSlot","maxSlot","rooms","count","first","last"];
parameter_type=["roomLabels","teacher","teacher","teacher","roomLabels","dailySlot","dailySlot","slot","daySlot","daySlot","roomLabels","dailySlots","dailySlot","dailySlot"];
parameter_value=array2d(1..nr_parameters,1..max_element_parameter,[1,2,1,2,utt_single,0,0,0,utt_single,0,0,0,utt_halfhalf,0,0,0,1,2,2,0,1,0,0,0,3,0,0,0,4,0,0,0,1,0,0,0,8,0,0,0,1,2,0,0,1,0,0,0,3,0,0,0,4,0,0,0]);
part_sessions_teacher=[1,1,1];
part_teacher_sessions_count=[12,12,12,1];
scope_clustering=[utt_class,utt_class,utt_class,utt_part,utt_part,utt_session,utt_session,utt_session,utt_session,utt_class,utt_class,utt_class,utt_class,utt_class,utt_session,utt_session,utt_group,utt_teacher];
scope_mask=array2d(1..nr_scopes,1..max_session_rank,[0,0,0,0,0,0,0,0,0,0,0,0,1,4,5,6,7,8,9,10,11,12,0,0,0,0,0,0,0,0,0,0,0,0,0,0,1,0,0,0,0,0,0,0,0,0,0,0,5,0,0,0,0,0,0,0,0,0,0,0,1,0,0,0,0,0,0,0,0,0,0,0,1,0,0,0,0,0,0,0,0,0,0,0,3,0,0,0,0,0,0,0,0,0,0,0,1,0,0,0,0,0,0,0,0,0,0,0,0,0,0,0,0,0,0,0,0,0,0,0,0,0,0,0,0,0,0,0,0,0,0,0,0,0,0,0,0,0,0,0,0,0,0,0,0,0,0,0,0,0,0,0,0,0,0,0,0,0,0,0,0,0,0,0,0,0,0,0,0,0,0,0,0,0,0,0,0,0,0,0,0,0,0,0,0,0,0,0,0,0,0,0,0,0,0,0,0,0,0,0,0,0,0,0,0,0,0,0,0,0,0,0,0,0,0,0]);
filter_type=[utt_course,utt_part,utt_part,utt_part,utt_part,utt_part,utt_part,utt_part,utt_part,utt_course,utt_part,utt_part,utt_class,utt_class,utt_class,utt_group,utt_part];
filter_elements=[{1},{1},{2,4},{2},{2},{1},{4},{1},{2},{1},{1,2,3},{2,4},{2},{3},{4},{1,2,3,4},{3}];
function_type=[utt_hard,utt_hard,utt_hard,utt_hard,utt_hard,utt_hard,utt_hard,utt_hard,utt_hard,utt_hard,utt_hard,utt_hard,utt_hard,utt_hard];
